/*********************************************
 * OPL 12.6.0.0 Data
 * Author: Adrian Rodriguez Bazaga, Pau Rodriguez Esmerats
 * Creation Date: 30/11/2017 at 19:59:15
 *********************************************/

nNurses=1097;
maxConsec=2;
maxPresence=7;
maxHours=5;
minHours=1;
demand= [233 239 321 334 239 321 334 249 223 127 13 34 22 49 35 39 26 23 22 15 197 399 215 291  ];
